data/solutions/recovery/degenerate/intermediate/flexible/degenerate_intermediate_instance23/100.sol
Elapsed time: 100.16
Upper bound: 227959258.0
Planning weighted value: 8.8473723271e+11
C[0]=227959258.0
C[1]=227628726.0
C[2]=227242356.0
C[3]=227039734.0
C[4]=226654886.0
C[5]=226245481.0
C[6]=226174837.0
C[7]=225749959.0
C[8]=225734786.0
C[9]=223602076.0
C[10]=218373801.0
C[11]=0.0
y[0]=0
y[1]=1
y[2]=8
y[3]=9
y[4]=9
y[5]=6
y[6]=5
y[7]=7
y[8]=4
y[9]=9
y[10]=10
y[11]=7
y[12]=4
y[13]=9
y[14]=4
y[15]=1
y[16]=0
y[17]=1
y[18]=7
y[19]=3
y[20]=3
y[21]=1
y[22]=0
y[23]=10
y[24]=7
y[25]=4
y[26]=2
y[27]=4
y[28]=10
y[29]=3
y[30]=5
y[31]=2
y[32]=4
y[33]=1
y[34]=10
y[35]=5
y[36]=5
y[37]=2
y[38]=9
y[39]=3
y[40]=6
y[41]=6
y[42]=8
y[43]=0
y[44]=4
y[45]=0
y[46]=4
y[47]=9
y[48]=8
y[49]=5
y[50]=5
y[51]=2
y[52]=7
y[53]=8
y[54]=6
y[55]=0
y[56]=8
y[57]=10
y[58]=4
y[59]=9
y[60]=3
y[61]=3
y[62]=5
y[63]=2
y[64]=1
y[65]=10
y[66]=1
y[67]=0
y[68]=0
y[69]=6
y[70]=9
y[71]=9
y[72]=8
y[73]=7
y[74]=6
y[75]=2
y[76]=6
y[77]=8
