data/solutions/recovery/degenerate/intermediate/flexible/degenerate_intermediate_instance23/100.log

Log started (V12.6.3.0) Sat Apr 21 17:14:25 2018

New value for default parallel thread count: 1

Problem '/tmp/tmpmzXZn6.pyomo.lp' read.
Read time = 0.02 sec. (0.84 ticks)

Problem name         : /tmp/tmpmzXZn6.pyomo.lp
Objective sense      : Minimize
Variables            :     950  [Nneg: 1,  Binary: 936,  General Integer: 13]
Objective nonzeros   :       1
Linear constraints   :     182  [Less: 90,  Equal: 92]
  Nonzeros           :   60259
  RHS nonzeros       :     157

Variables            : Min LB: 0.000000         Max UB: 1.000000       
Objective nonzeros   : Min   : 1.000000         Max   : 1.000000       
Linear constraints   :
  Nonzeros           : Min   : 1.000000         Max   : 6.145599e+07   
  RHS nonzeros       : Min   : 1.000000         Max   : 8.000000       
Tried aggregator 2 times.
MIP Presolve eliminated 81 rows and 140 columns.
Aggregator did 6 substitutions.
Reduced MIP has 95 rows, 804 columns, and 2237 nonzeros.
Reduced MIP has 792 binaries, 12 generals, 0 SOSs, and 0 indicators.
Presolve time = 0.01 sec. (10.91 ticks)
Found incumbent of value 8.1769382e+08 after 0.01 sec. (12.44 ticks)
Probing time = 0.00 sec. (1.59 ticks)
Tried aggregator 1 time.
Reduced MIP has 95 rows, 804 columns, and 2237 nonzeros.
Reduced MIP has 792 binaries, 12 generals, 0 SOSs, and 0 indicators.
Presolve time = 0.00 sec. (1.14 ticks)
Probing time = 0.00 sec. (1.59 ticks)
Clique table members: 72.
MIP emphasis: balance optimality and feasibility.
MIP search method: dynamic search.
Parallel mode: none, using 1 thread.
Root relaxation solution time = 0.00 sec. (1.65 ticks)

        Nodes                                         Cuts/
   Node  Left     Objective  IInf  Best Integer    Best Bound    ItCnt     Gap

*     0+    0                       8.17694e+08        0.0000           100.00%
      0     0   2.25673e+08    28   8.17694e+08   2.25673e+08      147   72.40%
      0     0   2.25673e+08    22   8.17694e+08      Fract: 4      165   72.40%
      0     0   2.25673e+08    23   8.17694e+08      Fract: 1      167   72.40%
*     0+    0                       2.72457e+08   2.25673e+08            17.17%
*     0+    0                       2.66640e+08   2.25673e+08            15.36%
*     0+    0                       2.64441e+08   2.25673e+08            14.66%
*     0+    0                       2.55681e+08   2.25673e+08            11.74%
*     0+    0                       2.50251e+08   2.25673e+08             9.82%
      0     2   2.25673e+08    15   2.50251e+08   2.25673e+08      167    9.82%
Elapsed time = 0.05 sec. (59.09 ticks, tree = 0.01 MB, solutions = 6)
*    50+   50                       2.48571e+08   2.25673e+08             9.21%
*    50+   48                       2.36263e+08   2.25673e+08             4.48%
*    70+   64                       2.36168e+08   2.25673e+08             4.44%
*   150+  130                       2.32372e+08   2.25673e+08             2.88%
*   997+  813                       2.32342e+08   2.25673e+08             2.87%
*   997+  812                       2.31605e+08   2.25673e+08             2.56%
    997   814   2.25673e+08    17   2.31605e+08   2.25673e+08     4378    2.56%
    998   815   2.25673e+08    16   2.31605e+08   2.25673e+08     4385    2.56%
    999   816   2.25673e+08    25   2.31605e+08   2.25673e+08     4784    2.56%
   1000   816   2.25673e+08    22   2.31605e+08   2.25673e+08     4796    2.56%
   1001   817   2.25673e+08    23   2.31605e+08   2.25673e+08     4802    2.56%
   1002   818   2.25673e+08    24   2.31605e+08   2.25673e+08     4808    2.56%
   1003   819   2.25673e+08    23   2.31605e+08   2.25673e+08     4809    2.56%
   1004   819   2.25673e+08    24   2.31605e+08   2.25673e+08     4813    2.56%
   1005   819   2.25673e+08    22   2.31605e+08   2.25673e+08     4818    2.56%
*  1199+  415                       2.31565e+08   2.25673e+08             2.54%
*  1199+  303                       2.31061e+08   2.25673e+08             2.33%
   1399   203   2.25673e+08    26   2.31061e+08   2.25673e+08     7020    2.33%
Elapsed time = 0.92 sec. (1073.17 ticks, tree = 0.11 MB, solutions = 14)
*  1499+  199                       2.30807e+08   2.25673e+08             2.22%
*  1999+  433                       2.30466e+08   2.25673e+08             2.08%
*  2099+  460                       2.30034e+08   2.25673e+08             1.90%
*  2099+  433                       2.29710e+08   2.25673e+08             1.76%
*  2199+  501                       2.29521e+08   2.25673e+08             1.68%
   3179  1214   2.25673e+08    23   2.29521e+08   2.25673e+08    15064    1.68%
   3180  1215   2.25673e+08    22   2.29521e+08   2.25673e+08    15069    1.68%
   3181  1216   2.25673e+08    22   2.29521e+08   2.25673e+08    15070    1.68%
   3182  1217   2.25673e+08    22   2.29521e+08   2.25673e+08    15071    1.68%
   3183  1218   2.25673e+08    25   2.29521e+08   2.25673e+08    15075    1.68%
   3184  1219   2.25673e+08    23   2.29521e+08   2.25673e+08    15076    1.68%
   3185  1220   2.25812e+08    33   2.29521e+08   2.25673e+08    15092    1.68%
   3186  1221   2.25812e+08    33   2.29521e+08   2.25673e+08    15094    1.68%
   3187  1222   2.25814e+08    36   2.29521e+08   2.25673e+08    15098    1.68%
   3188  1223   2.25814e+08    34   2.29521e+08   2.25673e+08    15099    1.68%
Elapsed time = 1.75 sec. (2029.32 ticks, tree = 0.75 MB, solutions = 19)
   6129  3245   2.27279e+08    27   2.29521e+08   2.25673e+08    35732    1.68%
   6130  3244        cutoff         2.29521e+08   2.25673e+08    35736    1.68%
   6131  3245   2.25778e+08    32   2.29521e+08   2.25673e+08    35810    1.68%
   6132  3246   2.25778e+08    32   2.29521e+08   2.25673e+08    35820    1.68%
   6133  3247   2.25778e+08    32   2.29521e+08   2.25673e+08    35821    1.68%
   6134  3248   2.25778e+08    32   2.29521e+08   2.25673e+08    35822    1.68%
   6135  3249   2.25778e+08    33   2.29521e+08   2.25673e+08    35828    1.68%
   6136  3250   2.25778e+08    33   2.29521e+08   2.25673e+08    35831    1.68%
   6137  3251   2.25778e+08    34   2.29521e+08   2.25673e+08    35833    1.68%
   6138  3252   2.25800e+08    33   2.29521e+08   2.25673e+08    35837    1.68%
Elapsed time = 2.49 sec. (2987.38 ticks, tree = 1.96 MB, solutions = 19)
   8651  5172   2.29404e+08    25   2.29521e+08   2.25673e+08    57605    1.68%
   8652  5173   2.25673e+08    37   2.29521e+08   2.25673e+08    57683    1.68%
   8653  5174   2.25673e+08    40   2.29521e+08   2.25673e+08    57699    1.68%
   8654  5175   2.25673e+08    40   2.29521e+08   2.25673e+08    57701    1.68%
   8655  5176   2.25673e+08    36   2.29521e+08   2.25673e+08    57704    1.68%
   8656  5177   2.25788e+08    43   2.29521e+08   2.25673e+08    57768    1.68%
   8657  5176        cutoff         2.29521e+08   2.25673e+08    57773    1.68%
   8658  5175        cutoff         2.29521e+08   2.25673e+08    57777    1.68%
   8659  5176   2.25673e+08    25   2.29521e+08   2.25673e+08    57794    1.68%
   8660  5177   2.25673e+08    26   2.29521e+08   2.25673e+08    57795    1.68%
Elapsed time = 3.21 sec. (3952.14 ticks, tree = 3.15 MB, solutions = 19)
  10959  7131   2.28636e+08    32   2.29521e+08   2.25673e+08    78582    1.68%
  10960  7132   2.25872e+08    32   2.29521e+08   2.25673e+08    78699    1.68%
  10961  7133   2.25751e+08    46   2.29521e+08   2.25673e+08    78825    1.68%
  10962  7134   2.25760e+08    61   2.29521e+08   2.25673e+08    78830    1.68%
  10963  7135   2.25828e+08    53   2.29521e+08   2.25673e+08    78843    1.68%
  10964  7136   2.25848e+08    43   2.29521e+08   2.25673e+08    78852    1.68%
  10965  7137   2.25856e+08    46   2.29521e+08   2.25673e+08    78868    1.68%
  10966  7138   2.25879e+08    36   2.29521e+08   2.25673e+08    78877    1.68%
  10967  7139   2.27407e+08    32   2.29521e+08   2.25673e+08    78952    1.68%
  10968  7140   2.27472e+08    28   2.29521e+08   2.25673e+08    78957    1.68%
Elapsed time = 4.23 sec. (5246.62 ticks, tree = 4.30 MB, solutions = 19)
  13878  9684   2.25673e+08    25   2.29521e+08   2.25673e+08   101675    1.68%
  13879  9685   2.25673e+08    23   2.29521e+08   2.25673e+08   101678    1.68%
  13880  9686   2.25673e+08    28   2.29521e+08   2.25673e+08   101691    1.68%
  13881  9687   2.25673e+08    27   2.29521e+08   2.25673e+08   101692    1.68%
  13882  9688   2.25673e+08    28   2.29521e+08   2.25673e+08   101694    1.68%
  13883  9689   2.25673e+08    27   2.29521e+08   2.25673e+08   101700    1.68%
  13884  9690   2.25673e+08    26   2.29521e+08   2.25673e+08   101702    1.68%
  13885  9691   2.25673e+08    25   2.29521e+08   2.25673e+08   101704    1.68%
  13886  9692   2.25673e+08    25   2.29521e+08   2.25673e+08   101705    1.68%
  13887  9693   2.25673e+08    26   2.29521e+08   2.25673e+08   101710    1.68%
Elapsed time = 4.94 sec. (6202.10 ticks, tree = 6.02 MB, solutions = 19)
  15335 10602   2.25673e+08    31   2.29521e+08   2.25673e+08   127553    1.68%
  15336 10603   2.25673e+08    31   2.29521e+08   2.25673e+08   127556    1.68%
  15337 10604   2.25673e+08    27   2.29521e+08   2.25673e+08   127565    1.68%
  15338 10605   2.25673e+08    29   2.29521e+08   2.25673e+08   127593    1.68%
  15339 10606   2.25673e+08    28   2.29521e+08   2.25673e+08   127605    1.68%
  15340 10607   2.25673e+08    26   2.29521e+08   2.25673e+08   127606    1.68%
  15341 10608   2.25673e+08    26   2.29521e+08   2.25673e+08   127643    1.68%
  15342 10609   2.25673e+08    26   2.29521e+08   2.25673e+08   127646    1.68%
  15343 10610   2.25673e+08    26   2.29521e+08   2.25673e+08   127651    1.68%
  15344 10610   2.25673e+08    27   2.29521e+08   2.25673e+08   127670    1.68%
Elapsed time = 5.65 sec. (7166.86 ticks, tree = 6.58 MB, solutions = 19)
  17077 11978   2.25673e+08    40   2.29521e+08   2.25673e+08   150901    1.68%
  17078 11979   2.25673e+08    38   2.29521e+08   2.25673e+08   150907    1.68%
  17079 11980   2.25673e+08    38   2.29521e+08   2.25673e+08   150908    1.68%
  17080 11981   2.25673e+08    34   2.29521e+08   2.25673e+08   150910    1.68%
  17081 11982   2.25673e+08    32   2.29521e+08   2.25673e+08   150926    1.68%
  17082 11983   2.25673e+08    30   2.29521e+08   2.25673e+08   150927    1.68%
  17083 11984   2.25673e+08    28   2.29521e+08   2.25673e+08   150933    1.68%
  17084 11985   2.25673e+08    26   2.29521e+08   2.25673e+08   150934    1.68%
  17085 11986   2.25673e+08    33   2.29521e+08   2.25673e+08   150951    1.68%
  17086 11987   2.25673e+08    30   2.29521e+08   2.25673e+08   150952    1.68%
Elapsed time = 6.32 sec. (8124.16 ticks, tree = 7.41 MB, solutions = 19)
  18189 12827   2.25673e+08    32   2.29521e+08   2.25673e+08   176255    1.68%
  18190 12828   2.25673e+08    30   2.29521e+08   2.25673e+08   176257    1.68%
  18191 12829   2.25673e+08    31   2.29521e+08   2.25673e+08   176267    1.68%
  18192 12830   2.25673e+08    32   2.29521e+08   2.25673e+08   176275    1.68%
  18193 12831   2.25673e+08    28   2.29521e+08   2.25673e+08   176279    1.68%
  18194 12832   2.25673e+08    28   2.29521e+08   2.25673e+08   176280    1.68%
  18195 12833   2.25673e+08    29   2.29521e+08   2.25673e+08   176286    1.68%
  18196 12834   2.25673e+08    28   2.29521e+08   2.25673e+08   176294    1.68%
  18197 12835   2.25673e+08    28   2.29521e+08   2.25673e+08   176295    1.68%
  18198 12836   2.25673e+08    28   2.29521e+08   2.25673e+08   176303    1.68%
Elapsed time = 7.01 sec. (9080.12 ticks, tree = 7.93 MB, solutions = 19)
  19616 14023   2.25673e+08    22   2.29521e+08   2.25673e+08   201308    1.68%
  19617 14024   2.25673e+08    24   2.29521e+08   2.25673e+08   201314    1.68%
  19618 14025   2.25673e+08    22   2.29521e+08   2.25673e+08   201316    1.68%
  19619 14026   2.25673e+08    23   2.29521e+08   2.25673e+08   201327    1.68%
  19620 14027   2.25673e+08    23   2.29521e+08   2.25673e+08   201328    1.68%
  19621 14028   2.25673e+08    23   2.29521e+08   2.25673e+08   201329    1.68%
  19622 14029   2.25673e+08    22   2.29521e+08   2.25673e+08   201350    1.68%
  19623 14030   2.25673e+08    23   2.29521e+08   2.25673e+08   201378    1.68%
  19624 14031   2.25673e+08    23   2.29521e+08   2.25673e+08   201379    1.68%
  23700 17397   2.27631e+08    28   2.29521e+08   2.25673e+08   272380    1.68%
Elapsed time = 9.71 sec. (12894.98 ticks, tree = 11.15 MB, solutions = 19)
  27420 20170        cutoff         2.29521e+08   2.25673e+08   361328    1.68%
  27421 20169        cutoff         2.29521e+08   2.25673e+08   361375    1.68%
  27422 20168        cutoff         2.29521e+08   2.25673e+08   361399    1.68%
  27423 20167        cutoff         2.29521e+08   2.25673e+08   361410    1.68%
  27424 20166    infeasible         2.29521e+08   2.25673e+08   361410    1.68%
  27425 20165        cutoff         2.29521e+08   2.25673e+08   361682    1.68%
  27426 20164    infeasible         2.29521e+08   2.25673e+08   361743    1.68%
  27427 20163        cutoff         2.29521e+08   2.25673e+08   361854    1.68%
  27428 20162    infeasible         2.29521e+08   2.25673e+08   361952    1.68%
  27429 20163   2.25673e+08    28   2.29521e+08   2.25673e+08   362062    1.68%
Elapsed time = 12.47 sec. (16753.29 ticks, tree = 12.89 MB, solutions = 19)
  30303 22087   2.27841e+08    28   2.29521e+08   2.25673e+08   449118    1.68%
  30304 22088   2.27841e+08    22   2.29521e+08   2.25673e+08   449131    1.68%
  30305 22089   2.27841e+08    20   2.29521e+08   2.25673e+08   449145    1.68%
  30306 22090   2.27841e+08    15   2.29521e+08   2.25673e+08   449180    1.68%
  30307 22091   2.27841e+08    14   2.29521e+08   2.25673e+08   449199    1.68%
  30308 22092   2.27841e+08    13   2.29521e+08   2.25673e+08   449202    1.68%
  30309 22093   2.27841e+08    12   2.29521e+08   2.25673e+08   449211    1.68%
  30310 22094   2.27841e+08    12   2.29521e+08   2.25673e+08   449212    1.68%
  30311 22095   2.27841e+08    11   2.29521e+08   2.25673e+08   449213    1.68%
  30312 22096   2.27841e+08    13   2.29521e+08   2.25673e+08   449214    1.68%
Elapsed time = 15.19 sec. (20591.22 ticks, tree = 14.10 MB, solutions = 19)
  34449 25516   2.27655e+08    22   2.29521e+08   2.25673e+08   535786    1.68%
  34450 25515        cutoff         2.29521e+08   2.25673e+08   535796    1.68%
  34451 25514        cutoff         2.29521e+08   2.25673e+08   535809    1.68%
  34452 25515   2.25904e+08    34   2.29521e+08   2.25673e+08   536021    1.68%
  34453 25516   2.25905e+08    34   2.29521e+08   2.25673e+08   536029    1.68%
  34454 25517   2.25905e+08    36   2.29521e+08   2.25673e+08   536040    1.68%
  34455 25518   2.27655e+08    21   2.29521e+08   2.25673e+08   536095    1.68%
  34456 25519   2.27655e+08    20   2.29521e+08   2.25673e+08   536106    1.68%
  34457 25520   2.27655e+08    19   2.29521e+08   2.25673e+08   536113    1.68%
  34458 25521   2.27655e+08    17   2.29521e+08   2.25673e+08   536119    1.68%
Elapsed time = 17.89 sec. (24416.48 ticks, tree = 16.24 MB, solutions = 19)
  42462 32354   2.25898e+08    26   2.29521e+08   2.25673e+08   613277    1.68%
  42463 32355   2.27044e+08    28   2.29521e+08   2.25673e+08   613317    1.68%
  42464 32354    infeasible         2.29521e+08   2.25673e+08   613317    1.68%
  42465 32355   2.27044e+08    28   2.29521e+08   2.25673e+08   613318    1.68%
  42466 32356   2.27312e+08    27   2.29521e+08   2.25673e+08   613323    1.68%
  42467 32357   2.27312e+08    27   2.29521e+08   2.25673e+08   613324    1.68%
  42468 32358   2.27312e+08    28   2.29521e+08   2.25673e+08   613327    1.68%
  42469 32357        cutoff         2.29521e+08   2.25673e+08   613336    1.68%
  42470 32358   2.29471e+08     9   2.29521e+08   2.25673e+08   613352    1.68%
  42471 32359   2.29471e+08    10   2.29521e+08   2.25673e+08   613355    1.68%
Elapsed time = 20.60 sec. (28237.16 ticks, tree = 20.71 MB, solutions = 19)
  50435 39633   2.25673e+08    27   2.29521e+08   2.25673e+08   690392    1.68%
  50436 39634   2.25673e+08    29   2.29521e+08   2.25673e+08   690411    1.68%
  50437 39635   2.25673e+08    29   2.29521e+08   2.25673e+08   690412    1.68%
  50438 39636   2.25673e+08    28   2.29521e+08   2.25673e+08   690413    1.68%
  50439 39637   2.25673e+08    28   2.29521e+08   2.25673e+08   690415    1.68%
  50440 39638   2.25673e+08    28   2.29521e+08   2.25673e+08   690416    1.68%
  50441 39639   2.25673e+08    27   2.29521e+08   2.25673e+08   690433    1.68%
  50442 39640   2.25673e+08    27   2.29521e+08   2.25673e+08   690460    1.68%
  50443 39641   2.25673e+08    27   2.29521e+08   2.25673e+08   690461    1.68%
  50444 39642   2.25673e+08    25   2.29521e+08   2.25673e+08   690470    1.68%
Elapsed time = 23.85 sec. (32055.00 ticks, tree = 26.34 MB, solutions = 19)
* 54799+43387                       2.29507e+08   2.25673e+08             1.67%
* 54799+43194                       2.29349e+08   2.25673e+08             1.60%
  57649 45754   2.29203e+08    19   2.29349e+08   2.25673e+08   766694    1.60%
  57650 45755   2.29203e+08    17   2.29349e+08   2.25673e+08   766695    1.60%
  57651 45756   2.29203e+08    20   2.29349e+08   2.25673e+08   766702    1.60%
  57652 45757   2.29203e+08    19   2.29349e+08   2.25673e+08   766703    1.60%
  57653 45758   2.29203e+08    19   2.29349e+08   2.25673e+08   766705    1.60%
  57654 45759   2.29203e+08    19   2.29349e+08   2.25673e+08   766710    1.60%
  57655 45760   2.29203e+08    20   2.29349e+08   2.25673e+08   766711    1.60%
  57656 45761   2.29203e+08    20   2.29349e+08   2.25673e+08   766715    1.60%
  57657 45762   2.29203e+08    19   2.29349e+08   2.25673e+08   766723    1.60%
  57658 45763   2.29203e+08    20   2.29349e+08   2.25673e+08   766726    1.60%
Elapsed time = 27.28 sec. (35872.05 ticks, tree = 30.25 MB, solutions = 21)
  66133 53517   2.27052e+08    32   2.29349e+08   2.25673e+08   843178    1.60%
  66134 53518   2.27052e+08    31   2.29349e+08   2.25673e+08   843179    1.60%
  66135 53519   2.27052e+08    31   2.29349e+08   2.25673e+08   843180    1.60%
  66136 53520   2.27052e+08    31   2.29349e+08   2.25673e+08   843183    1.60%
  66137 53521   2.27052e+08    28   2.29349e+08   2.25673e+08   843185    1.60%
  66138 53522   2.27052e+08    28   2.29349e+08   2.25673e+08   843186    1.60%
  66139 53523   2.27052e+08    31   2.29349e+08   2.25673e+08   843190    1.60%
  66140 53524   2.27052e+08    30   2.29349e+08   2.25673e+08   843191    1.60%
  66141 53523    infeasible         2.29349e+08   2.25673e+08   843209    1.60%
  66142 53522        cutoff         2.29349e+08   2.25673e+08   843228    1.60%
Elapsed time = 30.68 sec. (39689.68 ticks, tree = 35.43 MB, solutions = 21)
  73681 60399   2.25755e+08    36   2.29349e+08   2.25673e+08   924101    1.60%
  73682 60400   2.25755e+08    34   2.29349e+08   2.25673e+08   924102    1.60%
  73683 60401   2.25773e+08    30   2.29349e+08   2.25673e+08   924110    1.60%
  73684 60402   2.25773e+08    29   2.29349e+08   2.25673e+08   924111    1.60%
  73685 60403   2.25773e+08    29   2.29349e+08   2.25673e+08   924113    1.60%
  73686 60404   2.25776e+08    29   2.29349e+08   2.25673e+08   924114    1.60%
  73687 60405   2.25779e+08    29   2.29349e+08   2.25673e+08   924115    1.60%
  73688 60406   2.25779e+08    29   2.29349e+08   2.25673e+08   924121    1.60%
  73689 60407   2.26139e+08    50   2.29349e+08   2.25673e+08   924341    1.60%
  73690 60408   2.26139e+08    48   2.29349e+08   2.25673e+08   924342    1.60%
Elapsed time = 34.08 sec. (43515.10 ticks, tree = 40.02 MB, solutions = 21)
  80951 66909   2.27198e+08    27   2.29349e+08   2.25673e+08  1007676    1.60%
  80952 66910   2.27278e+08    26   2.29349e+08   2.25673e+08  1007687    1.60%
  80953 66911   2.28760e+08    26   2.29349e+08   2.25673e+08  1007696    1.60%
  80954 66912   2.28760e+08    21   2.29349e+08   2.25673e+08  1007697    1.60%
  80955 66913   2.28760e+08    21   2.29349e+08   2.25673e+08  1007698    1.60%
  80956 66914   2.28760e+08    21   2.29349e+08   2.25673e+08  1007699    1.60%
  80957 66913        cutoff         2.29349e+08   2.25673e+08  1007701    1.60%
  80958 66912        cutoff         2.29349e+08   2.25673e+08  1007702    1.60%
  80959 66913   2.25673e+08    24   2.29349e+08   2.25673e+08  1007789    1.60%
  80960 66914   2.25673e+08    23   2.29349e+08   2.25673e+08  1007805    1.60%
Elapsed time = 37.51 sec. (47335.61 ticks, tree = 46.25 MB, solutions = 21)
* 84299+68997                       2.29080e+08   2.25673e+08             1.49%
* 84299+68633                       2.28926e+08   2.25673e+08             1.42%
  87877 71553   2.25673e+08    20   2.28926e+08   2.25673e+08  1085169    1.42%
  87878 71554   2.25673e+08    19   2.28926e+08   2.25673e+08  1085200    1.42%
  87879 71555   2.25673e+08    21   2.28926e+08   2.25673e+08  1085202    1.42%
  87880 71556   2.25673e+08    23   2.28926e+08   2.25673e+08  1085223    1.42%
  87881 71557   2.25673e+08    24   2.28926e+08   2.25673e+08  1085225    1.42%
  87882 71558   2.25673e+08    23   2.28926e+08   2.25673e+08  1085237    1.42%
  87883 71557        cutoff         2.28926e+08   2.25673e+08  1085375    1.42%
  87884 71558   2.25673e+08    21   2.28926e+08   2.25673e+08  1085376    1.42%
  87885 71559   2.25673e+08    26   2.28926e+08   2.25673e+08  1085384    1.42%
  87886 71560   2.25673e+08    25   2.28926e+08   2.25673e+08  1085391    1.42%
Elapsed time = 40.94 sec. (51157.87 ticks, tree = 49.20 MB, solutions = 23)
* 89699+71980                       2.28767e+08   2.25673e+08             1.35%
* 91499+72636                       2.28515e+08   2.25673e+08             1.24%
  93525 74136   2.25673e+08    24   2.28515e+08   2.25673e+08  1170811    1.24%
  93526 74137   2.25673e+08    24   2.28515e+08   2.25673e+08  1170816    1.24%
  93527 74138   2.25673e+08    24   2.28515e+08   2.25673e+08  1170916    1.24%
  93528 74139   2.25673e+08    24   2.28515e+08   2.25673e+08  1170997    1.24%
  93529 74140   2.25673e+08    22   2.28515e+08   2.25673e+08  1171020    1.24%
  93530 74141   2.25673e+08    23   2.28515e+08   2.25673e+08  1171022    1.24%
  93531 74142   2.25706e+08    34   2.28515e+08   2.25673e+08  1171057    1.24%
  93532 74143   2.27368e+08    21   2.28515e+08   2.25673e+08  1171150    1.24%
  93533 74142        cutoff         2.28515e+08   2.25673e+08  1171157    1.24%
  93534 74141        cutoff         2.28515e+08   2.25673e+08  1171162    1.24%
Elapsed time = 44.53 sec. (54988.74 ticks, tree = 50.74 MB, solutions = 25)
  99879 79192   2.25673e+08    34   2.28515e+08   2.25673e+08  1252613    1.24%
  99880 79193   2.25673e+08    25   2.28515e+08   2.25673e+08  1252632    1.24%
  99881 79194   2.25673e+08    27   2.28515e+08   2.25673e+08  1252635    1.24%
  99882 79195   2.25673e+08    27   2.28515e+08   2.25673e+08  1252639    1.24%
  99883 79196   2.25673e+08    24   2.28515e+08   2.25673e+08  1252645    1.24%
  99884 79197   2.25673e+08    26   2.28515e+08   2.25673e+08  1252655    1.24%
  99885 79196        cutoff         2.28515e+08   2.25673e+08  1252661    1.24%
  99886 79195        cutoff         2.28515e+08   2.25673e+08  1252701    1.24%
  99887 79196   2.25673e+08    23   2.28515e+08   2.25673e+08  1252727    1.24%
  99888 79197   2.25673e+08    23   2.28515e+08   2.25673e+08  1252737    1.24%
Elapsed time = 48.01 sec. (58808.28 ticks, tree = 54.11 MB, solutions = 25)
 106942 85173   2.26177e+08    42   2.28515e+08   2.25673e+08  1334083    1.24%
 106943 85174   2.25673e+08    27   2.28515e+08   2.25673e+08  1334084    1.24%
 106944 85175   2.25673e+08    27   2.28515e+08   2.25673e+08  1334086    1.24%
 106945 85176   2.25673e+08    27   2.28515e+08   2.25673e+08  1334090    1.24%
 106946 85177   2.25673e+08    27   2.28515e+08   2.25673e+08  1334091    1.24%
 106947 85178   2.25673e+08    27   2.28515e+08   2.25673e+08  1334092    1.24%
 106948 85179   2.25673e+08    26   2.28515e+08   2.25673e+08  1334097    1.24%
 106949 85180   2.25673e+08    26   2.28515e+08   2.25673e+08  1334098    1.24%
 106950 85181   2.25673e+08    26   2.28515e+08   2.25673e+08  1334099    1.24%
 106951 85182   2.25673e+08    26   2.28515e+08   2.25673e+08  1334100    1.24%
Elapsed time = 51.44 sec. (62629.00 ticks, tree = 58.04 MB, solutions = 25)
 115074 92411   2.26406e+08    34   2.28515e+08   2.25673e+08  1411995    1.24%
 115075 92412   2.26406e+08    30   2.28515e+08   2.25673e+08  1412002    1.24%
 115076 92413   2.26406e+08    30   2.28515e+08   2.25673e+08  1412003    1.24%
 115077 92414   2.26406e+08    30   2.28515e+08   2.25673e+08  1412007    1.24%
 115078 92415   2.26406e+08    32   2.28515e+08   2.25673e+08  1412058    1.24%
 115079 92416   2.26406e+08    34   2.28515e+08   2.25673e+08  1412059    1.24%
 115080 92417   2.26406e+08    35   2.28515e+08   2.25673e+08  1412060    1.24%
 115081 92418   2.26406e+08    32   2.28515e+08   2.25673e+08  1412068    1.24%
 115082 92419   2.26406e+08    32   2.28515e+08   2.25673e+08  1412070    1.24%
 115083 92420   2.26406e+08    31   2.28515e+08   2.25673e+08  1412073    1.24%
Elapsed time = 54.81 sec. (66447.93 ticks, tree = 62.80 MB, solutions = 25)
 121362 97373   2.25726e+08    35   2.28515e+08   2.25673e+08  1502535    1.24%
 121363 97373   2.26913e+08    33   2.28515e+08   2.25673e+08  1502536    1.24%
 121364 97374   2.26913e+08    33   2.28515e+08   2.25673e+08  1502538    1.24%
 121365 97375   2.26913e+08    31   2.28515e+08   2.25673e+08  1502544    1.24%
 121366 97376   2.26913e+08    31   2.28515e+08   2.25673e+08  1502545    1.24%
 121367 97375   2.28462e+08    29   2.28515e+08   2.25673e+08  1502604    1.24%
 121368 97374        cutoff         2.28515e+08   2.25673e+08  1502630    1.24%
 121369 97373        cutoff         2.28515e+08   2.25673e+08  1502646    1.24%
 121370 97372    infeasible         2.28515e+08   2.25673e+08  1502646    1.24%
 121371 97371        cutoff         2.28515e+08   2.25673e+08  1502665    1.24%
Elapsed time = 58.30 sec. (70267.80 ticks, tree = 66.01 MB, solutions = 25)
 128493 103592   2.25673e+08    25   2.28515e+08   2.25673e+08  1586945    1.24%
 128494 103593   2.25673e+08    26   2.28515e+08   2.25673e+08  1586949    1.24%
 128495 103594   2.25673e+08    25   2.28515e+08   2.25673e+08  1586956    1.24%
 128496 103595   2.25673e+08    25   2.28515e+08   2.25673e+08  1586957    1.24%
 128497 103596   2.25673e+08    25   2.28515e+08   2.25673e+08  1586959    1.24%
 128498 103597   2.25673e+08    31   2.28515e+08   2.25673e+08  1586972    1.24%
 128499 103598   2.25673e+08    28   2.28515e+08   2.25673e+08  1586974    1.24%
 128500 103599   2.25673e+08    26   2.28515e+08   2.25673e+08  1586977    1.24%
 128501 103600   2.25673e+08    25   2.28515e+08   2.25673e+08  1586978    1.24%
 128502 103601   2.25673e+08    26   2.28515e+08   2.25673e+08  1586979    1.24%
Elapsed time = 61.69 sec. (74085.35 ticks, tree = 70.20 MB, solutions = 25)
 136638 110743   2.25673e+08    28   2.28515e+08   2.25673e+08  1662918    1.24%
 136639 110744   2.25673e+08    27   2.28515e+08   2.25673e+08  1662938    1.24%
 136640 110745   2.25673e+08    26   2.28515e+08   2.25673e+08  1662945    1.24%
 136641 110746   2.25742e+08    35   2.28515e+08   2.25673e+08  1663010    1.24%
 136642 110747   2.25742e+08    35   2.28515e+08   2.25673e+08  1663011    1.24%
 136643 110748   2.25743e+08    35   2.28515e+08   2.25673e+08  1663012    1.24%
 136644 110749   2.25743e+08    35   2.28515e+08   2.25673e+08  1663013    1.24%
 136645 110750   2.25746e+08    35   2.28515e+08   2.25673e+08  1663015    1.24%
 136646 110751   2.25746e+08    35   2.28515e+08   2.25673e+08  1663017    1.24%
 136647 110752   2.25761e+08    34   2.28515e+08   2.25673e+08  1663032    1.24%
Elapsed time = 65.07 sec. (77904.36 ticks, tree = 74.94 MB, solutions = 25)
 143633 116633    infeasible         2.28515e+08   2.25673e+08  1741400    1.24%
 143634 116634   2.25673e+08    19   2.28515e+08   2.25673e+08  1741434    1.24%
 143635 116635   2.25673e+08    19   2.28515e+08   2.25673e+08  1741451    1.24%
 143636 116636   2.25673e+08    19   2.28515e+08   2.25673e+08  1741453    1.24%
 143637 116637   2.25673e+08    19   2.28515e+08   2.25673e+08  1741456    1.24%
 143638 116638   2.25673e+08    19   2.28515e+08   2.25673e+08  1741481    1.24%
 143639 116639   2.25673e+08    21   2.28515e+08   2.25673e+08  1741508    1.24%
 143640 116640   2.25673e+08    21   2.28515e+08   2.25673e+08  1741526    1.24%
 143641 116641   2.25673e+08    21   2.28515e+08   2.25673e+08  1741549    1.24%
 143642 116642   2.25673e+08    21   2.28515e+08   2.25673e+08  1741555    1.24%
Elapsed time = 68.52 sec. (81725.04 ticks, tree = 78.79 MB, solutions = 25)
 150328 121847   2.25673e+08    25   2.28515e+08   2.25673e+08  1821069    1.24%
 150329 121848   2.25673e+08    24   2.28515e+08   2.25673e+08  1821070    1.24%
 150330 121849   2.25673e+08    24   2.28515e+08   2.25673e+08  1821071    1.24%
 150331 121850   2.25673e+08    27   2.28515e+08   2.25673e+08  1821088    1.24%
 150332 121851   2.25673e+08    28   2.28515e+08   2.25673e+08  1821094    1.24%
 150333 121852   2.25673e+08    28   2.28515e+08   2.25673e+08  1821096    1.24%
 150334 121853   2.25673e+08    28   2.28515e+08   2.25673e+08  1821097    1.24%
 150335 121854   2.25673e+08    27   2.28515e+08   2.25673e+08  1821109    1.24%
 150336 121855   2.25673e+08    29   2.28515e+08   2.25673e+08  1821130    1.24%
 150337 121856   2.25673e+08    28   2.28515e+08   2.25673e+08  1821132    1.24%
Elapsed time = 72.00 sec. (85543.01 ticks, tree = 82.24 MB, solutions = 25)
 157684 127942   2.25673e+08    30   2.28515e+08   2.25673e+08  1900877    1.24%
 157685 127943   2.25673e+08    28   2.28515e+08   2.25673e+08  1900878    1.24%
 157686 127944   2.25673e+08    26   2.28515e+08   2.25673e+08  1900879    1.24%
 157687 127945   2.25673e+08    25   2.28515e+08   2.25673e+08  1900881    1.24%
 157688 127945   2.26142e+08    34   2.28515e+08   2.25673e+08  1900910    1.24%
 157689 127945   2.26142e+08    33   2.28515e+08   2.25673e+08  1900913    1.24%
 157690 127946   2.26142e+08    33   2.28515e+08   2.25673e+08  1900913    1.24%
 157691 127947   2.26169e+08    33   2.28515e+08   2.25673e+08  1900917    1.24%
 157692 127948   2.26169e+08    34   2.28515e+08   2.25673e+08  1900922    1.24%
 157693 127949   2.26169e+08    35   2.28515e+08   2.25673e+08  1900926    1.24%
Elapsed time = 75.42 sec. (89362.93 ticks, tree = 86.25 MB, solutions = 25)
 164615 133848   2.26721e+08    38   2.28515e+08   2.25673e+08  1982853    1.24%
 164616 133849   2.26902e+08    32   2.28515e+08   2.25673e+08  1982861    1.24%
 164617 133849   2.27414e+08    26   2.28515e+08   2.25673e+08  1982865    1.24%
 164618 133849   2.27414e+08    29   2.28515e+08   2.25673e+08  1982867    1.24%
 164619 133849   2.27426e+08    29   2.28515e+08   2.25673e+08  1982868    1.24%
 164620 133850   2.27496e+08    29   2.28515e+08   2.25673e+08  1982871    1.24%
 164621 133851   2.27496e+08    32   2.28515e+08   2.25673e+08  1982873    1.24%
 164622 133852   2.27496e+08    36   2.28515e+08   2.25673e+08  1982875    1.24%
 164623 133851   2.28221e+08    32   2.28515e+08   2.25673e+08  1982878    1.24%
 164624 133850        cutoff         2.28515e+08   2.25673e+08  1982886    1.24%
Elapsed time = 78.88 sec. (93180.38 ticks, tree = 91.83 MB, solutions = 25)
 171476 139707   2.26342e+08    23   2.28515e+08   2.25673e+08  2065973    1.24%
 171477 139708   2.26342e+08    24   2.28515e+08   2.25673e+08  2065975    1.24%
 171478 139709   2.26342e+08    23   2.28515e+08   2.25673e+08  2065977    1.24%
 171479 139710   2.26342e+08    24   2.28515e+08   2.25673e+08  2065983    1.24%
 171480 139711   2.26342e+08    23   2.28515e+08   2.25673e+08  2065984    1.24%
 171481 139711   2.26342e+08    22   2.28515e+08   2.25673e+08  2065987    1.24%
 171482 139711   2.26342e+08    21   2.28515e+08   2.25673e+08  2065988    1.24%
 171483 139711   2.26342e+08    22   2.28515e+08   2.25673e+08  2065996    1.24%
 171484 139712   2.26342e+08    21   2.28515e+08   2.25673e+08  2065997    1.24%
 171485 139713   2.26342e+08    21   2.28515e+08   2.25673e+08  2066007    1.24%
Elapsed time = 82.31 sec. (96997.19 ticks, tree = 95.59 MB, solutions = 25)
 178312 145235   2.25673e+08    28   2.28515e+08   2.25673e+08  2150463    1.24%
 178313 145236   2.25673e+08    26   2.28515e+08   2.25673e+08  2150465    1.24%
 178314 145237   2.25673e+08    27   2.28515e+08   2.25673e+08  2150473    1.24%
 178315 145238   2.25673e+08    26   2.28515e+08   2.25673e+08  2150482    1.24%
 178316 145239   2.25673e+08    24   2.28515e+08   2.25673e+08  2150498    1.24%
 178317 145240   2.25673e+08    23   2.28515e+08   2.25673e+08  2150499    1.24%
 178318 145241   2.25673e+08    25   2.28515e+08   2.25673e+08  2150504    1.24%
 178319 145242   2.25673e+08    24   2.28515e+08   2.25673e+08  2150515    1.24%
 178320 145243   2.25673e+08    26   2.28515e+08   2.25673e+08  2150528    1.24%
 178321 145244   2.25673e+08    23   2.28515e+08   2.25673e+08  2150556    1.24%
Elapsed time = 85.77 sec. (100818.66 ticks, tree = 99.11 MB, solutions = 25)
 185252 150677   2.25673e+08    24   2.28515e+08   2.25673e+08  2236339    1.24%
 185253 150676    infeasible         2.28515e+08   2.25673e+08  2236339    1.24%
 185254 150677   2.25673e+08    21   2.28515e+08   2.25673e+08  2236406    1.24%
 185255 150678   2.25673e+08    22   2.28515e+08   2.25673e+08  2236458    1.24%
 185256 150679   2.25694e+08    33   2.28515e+08   2.25673e+08  2236536    1.24%
 185257 150678        cutoff         2.28515e+08   2.25673e+08  2236596    1.24%
 185258 150679   2.25694e+08    32   2.28515e+08   2.25673e+08  2236597    1.24%
 185259 150680   2.25694e+08    31   2.28515e+08   2.25673e+08  2236609    1.24%
 185260 150681   2.25694e+08    31   2.28515e+08   2.25673e+08  2236658    1.24%
 185261 150682   2.25694e+08    28   2.28515e+08   2.25673e+08  2236696    1.24%
Elapsed time = 89.26 sec. (104647.31 ticks, tree = 102.68 MB, solutions = 25)
 188999 153382   2.28238e+08    25   2.28515e+08   2.25673e+08  2292483    1.24%
 189000 153383   2.28238e+08    25   2.28515e+08   2.25673e+08  2292485    1.24%
 189001 153384   2.28238e+08    26   2.28515e+08   2.25673e+08  2292486    1.24%
 189002 153385   2.28238e+08    26   2.28515e+08   2.25673e+08  2292487    1.24%
 189003 153386   2.28238e+08    28   2.28515e+08   2.25673e+08  2292489    1.24%
 189004 153387   2.28238e+08    26   2.28515e+08   2.25673e+08  2292490    1.24%
 189005 153388   2.28238e+08    26   2.28515e+08   2.25673e+08  2292492    1.24%
 189006 153389   2.28238e+08    26   2.28515e+08   2.25673e+08  2292493    1.24%
 189007 153390   2.28238e+08    26   2.28515e+08   2.25673e+08  2292494    1.24%
 189008 153391   2.28238e+08    26   2.28515e+08   2.25673e+08  2292495    1.24%
Elapsed time = 92.69 sec. (108602.59 ticks, tree = 104.50 MB, solutions = 25)
*194099+152634                       2.27959e+08   2.25673e+08             1.00%
 195859 154165   2.25673e+08    26   2.27959e+08   2.25673e+08  2372910    1.00%
 195860 154166   2.25673e+08    24   2.27959e+08   2.25673e+08  2372950    1.00%
 195861 154167   2.25673e+08    20   2.27959e+08   2.25673e+08  2372951    1.00%
 195862 154166        cutoff         2.27959e+08   2.25673e+08  2372959    1.00%
 195863 154165        cutoff         2.27959e+08   2.25673e+08  2373024    1.00%
 195864 154166   2.25673e+08    20   2.27959e+08   2.25673e+08  2373050    1.00%
 195865 154167   2.25673e+08    23   2.27959e+08   2.25673e+08  2373063    1.00%
 195866 154168   2.25673e+08    23   2.27959e+08   2.25673e+08  2373064    1.00%
 195867 154169   2.25673e+08    23   2.27959e+08   2.25673e+08  2373066    1.00%
 195868 154170   2.25673e+08    24   2.27959e+08   2.25673e+08  2373082    1.00%
Elapsed time = 96.13 sec. (112422.84 ticks, tree = 105.96 MB, solutions = 26)
 202299 159508   2.25989e+08    31   2.27959e+08   2.25673e+08  2447972    1.00%
 202300 159509   2.25989e+08    31   2.27959e+08   2.25673e+08  2447981    1.00%
 202301 159510   2.25989e+08    31   2.27959e+08   2.25673e+08  2447982    1.00%
 202302 159511   2.25989e+08    31   2.27959e+08   2.25673e+08  2447989    1.00%
 202303 159512   2.25989e+08    33   2.27959e+08   2.25673e+08  2447994    1.00%
 202304 159513   2.25989e+08    31   2.27959e+08   2.25673e+08  2447998    1.00%
 202305 159514   2.25989e+08    29   2.27959e+08   2.25673e+08  2447999    1.00%
 202306 159515   2.25989e+08    29   2.27959e+08   2.25673e+08  2448000    1.00%
 202307 159516   2.25989e+08    29   2.27959e+08   2.25673e+08  2448005    1.00%
 202308 159517   2.25989e+08    29   2.27959e+08   2.25673e+08  2448008    1.00%
Elapsed time = 99.64 sec. (116241.28 ticks, tree = 109.43 MB, solutions = 26)

Cover cuts applied:  460
Mixed integer rounding cuts applied:  11
Gomory fractional cuts applied:  5

Root node processing (before b&c):
  Real time             =    0.05 sec. (59.25 ticks)
Sequential b&c:
  Real time             =   99.95 sec. (116599.59 ticks)
                          ------------
Total (root+branch&cut) =  100.00 sec. (116658.84 ticks)

Solution pool: 26 solutions saved.

MIP - Time limit exceeded, integer feasible:  Objective =  2.2795925800e+08
Current MIP best bound =  2.2567326400e+08 (gap = 2.28599e+06, 1.00%)
Solution time =  100.00 sec.  Iterations = 2456580  Nodes = 203425 (160562)
Deterministic time = 116658.84 ticks  (1166.59 ticks/sec)


Incumbent solution written to file '/tmp/tmpBV_TnH.cplex.sol'.
